c CNF formula generated by generate_input.py
c Number of variables: 50
c Number of clauses: 50
c Clause length: random between 1 and 4
p cnf 50 50
-39 17 15 -43 0
17 -47 -36 31 0
40 0
7 0
39 -5 44 -40 0
-26 -17 0
-7 -33 23 0
-36 5 0
-49 -48 0
1 -29 -38 0
50 -22 0
-18 0
-11 0
14 27 0
-38 0
4 0
36 0
1 0
-36 -23 -31 43 0
-26 -31 -41 0
-13 41 50 0
-14 0
-20 -30 -18 42 0
-14 -47 0
41 -15 0
11 17 27 37 0
23 0
5 29 26 14 0
-18 0
6 0
-24 -23 46 48 0
20 43 0
22 -12 0
-15 -40 0
26 0
5 11 -45 -30 0
13 18 -12 -39 0
-34 40 0
-5 18 -48 0
45 -7 -18 15 0
36 0
-42 27 0
31 19 -3 30 0
-44 -35 20 0
-19 0
-26 0
21 -12 -8 0
-42 28 10 3 0
-5 -12 42 -22 0
-16 9 -48 -43 0
